(declare-const delta_n Int)
(declare-const delta_j Int)
(declare-const delta_i Int)
(declare-const delta___cost Int)
(assert (exists
         ((|i'?1| Int) (|S1,2?2| Real) (|n'?3| Int) (|S1,1?4| Real)
            (|j'?5| Int) (|S1,0?6| Real) (|__cost'?7| Int) (KSUM1?8 Int)
            (|K1,1?9| Int) (|K1,0?10| Int) (K?11 Int) (|n'?12| Int)
            (|j'?13| Int) (|__cost'?14| Int) (j?15 Int) (n?16 Int) (i?17 Int)
            (__cost?18 Int))
         (and (<= (- i?17) 0) (< (+ (- n?16) i?17) 0) (<= (- K?11) 0)
                (<= (- |K1,0?10|) 0) (<= (- |K1,1?9|) 0)
                (= (+ |K1,1?9| |K1,0?10| (- K?11)) 0)
                (<= (+ KSUM1?8 (- K?11)) 0)
                (= (+ (- |S1,0?6|) |__cost'?7| (- |K1,0?10|)) 0)
                (= (+ (- |S1,1?4|) |j'?5| (- |K1,1?9|)) 0)
                (= (+ (- |S1,2?2|) |n'?3| |K1,0?10|) 0)
                (= (+ (- KSUM1?8) |K1,1?9| |K1,0?10|) 0)
                (= (+ (- __cost?18) |S1,0?6|) 0)
                (= (+ |S1,1?4| (- i?17) -1) 0) (= (+ |S1,2?2| (- n?16)) 0)
                (or (and (= K?11 0) (= (+ (- |n'?3|) n?16) 0)
                           (= (+ (- |j'?5|) i?17 1) 0)
                           (= (+ __cost?18 (- |__cost'?7|)) 0))
                      (and (<= (+ (- K?11) 1) 0) (<= (+ (- n?16) i?17 2) 0)
                             (<= (- i?17) 0) (<= (+ (- |n'?3|) |j'?5|) 0)
                             (<= (+ (- |j'?5|) 1) 0)))
                (= (+ (- |n'?3|) |j'?5| (- K?11) n?16 (- i?17) -1) 0)
                (= (+ (- __cost?18) |n'?3| |__cost'?7| (- n?16)) 0)
                (<= (+ |n'?3| (- n?16)) 0)
                (<= (+ (- |n'?3|) (- K?11) n?16) 0) (<= (- K?11) 0)
                (< (- |j'?5|) 0) (< (- |n'?3|) 0)
                (<= (+ |n'?3| (- |j'?5|)) 0) (= (+ |n'?12| (- |n'?3|)) 0)
                (= (+ |j'?13| (- |j'?5|)) 0) (= (+ |i'?1| (- i?17) -1) 0)
                (= (+ |__cost'?14| (- |__cost'?7|)) 0)
                (= delta___cost (+ |__cost'?14| (- __cost?18)))
                (= delta_i (+ |i'?1| (- i?17)))
                (= delta_j (+ |j'?13| (- j?15)))
                (= delta_n (+ |n'?12| (- n?16))))))
(check-sat)
